; number of variables :50
; number of clauses   :500
; each clause has 3 conjuncts
(set-logic QF_UF)
(declare-const var1 Bool)
(declare-const var2 Bool)
(declare-const var3 Bool)
(declare-const var4 Bool)
(declare-const var5 Bool)
(declare-const var6 Bool)
(declare-const var7 Bool)
(declare-const var8 Bool)
(declare-const var9 Bool)
(declare-const var10 Bool)
(declare-const var11 Bool)
(declare-const var12 Bool)
(declare-const var13 Bool)
(declare-const var14 Bool)
(declare-const var15 Bool)
(declare-const var16 Bool)
(declare-const var17 Bool)
(declare-const var18 Bool)
(declare-const var19 Bool)
(declare-const var20 Bool)
(declare-const var21 Bool)
(declare-const var22 Bool)
(declare-const var23 Bool)
(declare-const var24 Bool)
(declare-const var25 Bool)
(declare-const var26 Bool)
(declare-const var27 Bool)
(declare-const var28 Bool)
(declare-const var29 Bool)
(declare-const var30 Bool)
(declare-const var31 Bool)
(declare-const var32 Bool)
(declare-const var33 Bool)
(declare-const var34 Bool)
(declare-const var35 Bool)
(declare-const var36 Bool)
(declare-const var37 Bool)
(declare-const var38 Bool)
(declare-const var39 Bool)
(declare-const var40 Bool)
(declare-const var41 Bool)
(declare-const var42 Bool)
(declare-const var43 Bool)
(declare-const var44 Bool)
(declare-const var45 Bool)
(declare-const var46 Bool)
(declare-const var47 Bool)
(declare-const var48 Bool)
(declare-const var49 Bool)
(declare-const var50 Bool)
(assert (and
  (or var29 var48 var31)
  (or var8 var42 var37)
  (or var6 var9 var15)
  (or var22 var27 var14)
  (or var42 var40 var14)
  (or var31 var6 var34)
  (or var18 var34 var15)
  (or var35 var20 var20)
  (or var11 var37 var41)
  (or var47 var26 var10)
  (or var31 var10 var21)
  (or var43 var22 var47)
  (or var19 var35 var30)
  (or var6 var21 var47)
  (or var3 var20 var13)
  (or var12 var18 var47)
  (or var26 var41 var18)
  (or var23 var48 var7)
  (or var4 var36 var47)
  (or var6 var33 var8)
  (or var35 var32 var3)
  (or var40 var50 var22)
  (or var18 var3 var12)
  (or var30 var31 var13)
  (or var33 var4 var48)
  (or var5 var17 var33)
  (or var26 var27 var19)
  (or var39 var15 var33)
  (or var47 var17 var41)
  (or var40 var7 var8)
  (or var21 var35 var33)
  (or var34 var1 var7)
  (or var39 var43 var38)
  (or var48 var46 var12)
  (or var26 var40 var27)
  (or var31 var28 var37)
  (or var4 var25 var12)
  (or var17 var28 var38)
  (or var21 var26 var7)
  (or var11 var15 var23)
  (or var13 var14 var45)
  (or var30 var47 var31)
  (or var13 var6 var28)
  (or var23 var35 var38)
  (or var20 var29 var11)
  (or var48 var26 var14)
  (or var12 var48 var35)
  (or var36 var33 var39)
  (or var30 var26 var44)
  (or var20 var13 var15)
  (or var46 var36 var43)
  (or var19 var32 var2)
  (or var47 var24 var26)
  (or var39 var17 var32)
  (or var17 var16 var33)
  (or var22 var6 var12)
  (or var49 var35 var33)
  (or var17 var1 var29)
  (or var2 var14 var10)
  (or var23 var39 var32)
  (or var16 var15 var4)
  (or var9 var37 var5)
  (or var46 var22 var4)
  (or var29 var42 var18)
  (or var39 var36 var30)
  (or var19 var20 var22)
  (or var22 var11 var25)
  (or var2 var29 var3)
  (or var44 var44 var17)
  (or var49 var48 var50)
  (or var8 var1 var13)
  (or var18 var12 var38)
  (or var12 var23 var13)
  (or var18 var46 var1)
  (or var7 var20 var43)
  (or var11 var47 var49)
  (or var19 var50 var7)
  (or var39 var29 var32)
  (or var25 var12 var8)
  (or var32 var41 var34)
  (or var24 var48 var30)
  (or var12 var35 var17)
  (or var38 var50 var14)
  (or var47 var35 var5)
  (or var13 var47 var24)
  (or var45 var39 var1)
  (or var39 var35 var44)
  (or var30 var32 var6)
  (or var11 var2 var23)
  (or var17 var15 var25)
  (or var10 var47 var48)
  (or var30 var1 var46)
  (or var35 var4 var50)
  (or var16 var41 var24)
  (or var30 var24 var28)
  (or var9 var30 var8)
  (or var23 var27 var24)
  (or var42 var50 var49)
  (or var38 var10 var2)
  (or var10 var29 var32)
  (or var19 var32 var45)
  (or var13 var15 var7)
  (or var27 var42 var15)
  (or var40 var22 var28)
  (or var50 var35 var49)
  (or var5 var45 var3)
  (or var7 var32 var19)
  (or var16 var40 var16)
  (or var31 var24 var15)
  (or var42 var29 var4)
  (or var14 var9 var29)
  (or var11 var25 var37)
  (or var48 var39 var5)
  (or var47 var49 var31)
  (or var48 var17 var46)
  (or var1 var25 var8)
  (or var16 var9 var30)
  (or var33 var18 var3)
  (or var3 var3 var4)
  (or var1 var49 var37)
  (or var38 var2 var6)
  (or var14 var45 var49)
  (or var50 var18 var15)
  (or var10 var38 var36)
  (or var10 var22 var3)
  (or var33 var40 var44)
  (or var40 var22 var18)
  (or var3 var41 var6)
  (or var1 var14 var48)
  (or var34 var20 var43)
  (or var34 var31 var22)
  (or var49 var42 var1)
  (or var8 var25 var30)
  (or var15 var22 var20)
  (or var7 var48 var19)
  (or var42 var3 var22)
  (or var4 var16 var48)
  (or var43 var9 var27)
  (or var15 var46 var5)
  (or var40 var9 var36)
  (or var12 var11 var11)
  (or var49 var20 var32)
  (or var3 var12 var44)
  (or var24 var1 var24)
  (or var42 var44 var16)
  (or var12 var42 var22)
  (or var26 var10 var8)
  (or var46 var50 var20)
  (or var42 var48 var45)
  (or var43 var35 var9)
  (or var12 var22 var2)
  (or var14 var50 var16)
  (or var29 var31 var46)
  (or var20 var35 var11)
  (or var4 var32 var35)
  (or var15 var29 var16)
  (or var41 var19 var35)
  (or var32 var49 var11)
  (or var30 var5 var28)
  (or var43 var3 var17)
  (or var36 var44 var26)
  (or var50 var22 var14)
  (or var24 var9 var8)
  (or var14 var38 var31)
  (or var49 var39 var29)
  (or var23 var15 var38)
  (or var5 var6 var37)
  (or var18 var30 var15)
  (or var36 var19 var36)
  (or var50 var5 var24)
  (or var5 var37 var46)
  (or var5 var26 var28)
  (or var35 var15 var31)
  (or var10 var33 var35)
  (or var23 var8 var22)
  (or var30 var17 var42)
  (or var7 var13 var47)
  (or var33 var38 var41)
  (or var3 var21 var37)
  (or var7 var32 var13)
  (or var42 var42 var23)
  (or var20 var49 var1)
  (or var20 var25 var31)
  (or var4 var8 var33)
  (or var11 var6 var3)
  (or var9 var26 var44)
  (or var39 var7 var4)
  (or var34 var25 var25)
  (or var16 var17 var46)
  (or var23 var38 var10)
  (or var5 var11 var28)
  (or var34 var47 var3)
  (or var9 var22 var17)
  (or var5 var41 var20)
  (or var33 var29 var1)
  (or var33 var16 var14)
  (or var24 var32 var41)
  (or var29 var2 var40)
  (or var14 var42 var35)
  (or var31 var20 var4)
  (or var50 var34 var12)
  (or var5 var13 var46)
  (or var11 var24 var46)
  (or var10 var23 var31)
  (or var30 var34 var14)
  (or var22 var40 var47)
  (or var24 var16 var22)
  (or var16 var14 var7)
  (or var9 var25 var5)
  (or var47 var8 var9)
  (or var36 var34 var18)
  (or var5 var1 var19)
  (or var40 var23 var5)
  (or var41 var33 var23)
  (or var27 var27 var32)
  (or var33 var10 var41)
  (or var10 var21 var12)
  (or var14 var1 var47)
  (or var27 var24 var27)
  (or var17 var17 var50)
  (or var24 var38 var34)
  (or var40 var14 var15)
  (or var36 var10 var42)
  (or var9 var48 var37)
  (or var7 var43 var47)
  (or var29 var20 var23)
  (or var36 var14 var2)
  (or var48 var50 var39)
  (or var50 var25 var7)
  (or var24 var38 var34)
  (or var44 var38 var31)
  (or var14 var17 var42)
  (or var20 var5 var44)
  (or var22 var9 var1)
  (or var33 var19 var19)
  (or var23 var26 var16)
  (or var24 var1 var9)
  (or var16 var38 var30)
  (or var36 var41 var43)
  (or var6 var33 var38)
  (or var36 var31 var2)
  (or var10 var17 var33)
  (or var11 var4 var50)
  (or var11 var50 var31)
  (or var13 var26 var36)
  (or var13 var6 var28)
  (or var11 var16 var49)
  (or var16 var48 var21)
  (or var1 var16 var8)
  (or var50 var23 var28)
  (or var14 var45 var6)
  (or var42 var22 var47)
  (or var27 var44 var18)
  (or var21 var30 var46)
  (or var7 var3 var21)
  (or var30 var46 var15)
  (or var28 var40 var17)
  (or var5 var23 var2)
  (or var34 var6 var10)
  (or var27 var32 var19)
  (or var31 var43 var36)
  (or var20 var29 var13)
  (or var37 var18 var4)
  (or var16 var16 var2)
  (or var9 var44 var33)
  (or var43 var14 var45)
  (or var11 var49 var21)
  (or var12 var41 var19)
  (or var26 var38 var42)
  (or var20 var5 var14)
  (or var40 var47 var29)
  (or var47 var30 var50)
  (or var39 var10 var26)
  (or var33 var44 var31)
  (or var50 var7 var15)
  (or var24 var7 var12)
  (or var10 var34 var17)
  (or var40 var28 var12)
  (or var35 var3 var29)
  (or var50 var19 var28)
  (or var47 var13 var42)
  (or var9 var44 var14)
  (or var43 var41 var10)
  (or var49 var13 var39)
  (or var41 var25 var46)
  (or var6 var7 var43)
  (or var1 var37 var41)
  (or var6 var25 var18)
  (or var39 var15 var42)
  (or var9 var44 var47)
  (or var10 var3 var28)
  (or var1 var42 var46)
  (or var36 var13 var30)
  (or var47 var45 var31)
  (or var40 var42 var29)
  (or var1 var13 var22)
  (or var22 var44 var4)
  (or var17 var9 var13)
  (or var37 var15 var12)
  (or var7 var12 var41)
  (or var19 var34 var47)
  (or var22 var31 var49)
  (or var19 var34 var16)
  (or var45 var15 var15)
  (or var46 var25 var11)
  (or var2 var9 var16)
  (or var49 var40 var34)
  (or var43 var22 var36)
  (or var25 var42 var22)
  (or var43 var1 var50)
  (or var14 var2 var8)
  (or var24 var45 var15)
  (or var40 var9 var37)
  (or var13 var5 var43)
  (or var35 var48 var50)
  (or var27 var46 var24)
  (or var45 var2 var7)
  (or var38 var20 var20)
  (or var31 var2 var20)
  (or var3 var35 var27)
  (or var4 var21 var22)
  (or var33 var11 var5)
  (or var24 var37 var31)
  (or var46 var13 var12)
  (or var12 var41 var36)
  (or var44 var36 var34)
  (or var22 var29 var50)
  (or var48 var17 var8)
  (or var21 var28 var2)
  (or var44 var45 var25)
  (or var11 var37 var35)
  (or var24 var9 var40)
  (or var45 var8 var47)
  (or var1 var22 var1)
  (or var12 var36 var35)
  (or var14 var17 var5)
  (or var3 var38 var17)
  (or var27 var48 var34)
  (or var24 var33 var34)
  (or var12 var41 var26)
  (or var22 var36 var28)
  (or var13 var4 var30)
  (or var34 var30 var27)
  (or var24 var17 var22)
  (or var39 var50 var14)
  (or var40 var7 var2)
  (or var23 var29 var12)
  (or var8 var34 var18)
  (or var26 var35 var30)
  (or var26 var39 var35)
  (or var16 var42 var34)
  (or var30 var1 var42)
  (or var6 var43 var17)
  (or var22 var40 var8)
  (or var31 var47 var32)
  (or var3 var35 var13)
  (or var35 var19 var28)
  (or var12 var46 var19)
  (or var4 var2 var32)
  (or var47 var16 var38)
  (or var15 var7 var26)
  (or var20 var49 var15)
  (or var30 var29 var31)
  (or var29 var14 var8)
  (or var37 var2 var41)
  (or var21 var42 var49)
  (or var22 var3 var40)
  (or var32 var26 var29)
  (or var16 var38 var17)
  (or var45 var17 var40)
  (or var41 var3 var21)
  (or var49 var21 var17)
  (or var32 var43 var40)
  (or var27 var38 var37)
  (or var23 var43 var25)
  (or var48 var40 var7)
  (or var12 var7 var27)
  (or var3 var24 var50)
  (or var35 var44 var25)
  (or var15 var10 var49)
  (or var38 var48 var34)
  (or var10 var15 var3)
  (or var3 var14 var9)
  (or var34 var46 var18)
  (or var6 var40 var24)
  (or var35 var35 var22)
  (or var33 var32 var27)
  (or var10 var26 var38)
  (or var21 var37 var35)
  (or var48 var16 var18)
  (or var20 var2 var32)
  (or var29 var19 var22)
  (or var24 var16 var12)
  (or var6 var7 var48)
  (or var25 var38 var16)
  (or var1 var31 var18)
  (or var33 var43 var6)
  (or var30 var30 var27)
  (or var23 var49 var10)
  (or var28 var32 var2)
  (or var33 var42 var20)
  (or var22 var5 var30)
  (or var44 var11 var5)
  (or var10 var34 var37)
  (or var32 var24 var16)
  (or var33 var29 var34)
  (or var7 var34 var35)
  (or var47 var42 var9)
  (or var48 var10 var11)
  (or var1 var16 var14)
  (or var30 var20 var10)
  (or var20 var8 var42)
  (or var8 var34 var38)
  (or var1 var8 var2)
  (or var41 var3 var34)
  (or var23 var41 var18)
  (or var2 var11 var36)
  (or var28 var44 var37)
  (or var6 var49 var37)
  (or var1 var34 var25)
  (or var2 var6 var4)
  (or var31 var12 var8)
  (or var27 var47 var31)
  (or var35 var12 var11)
  (or var2 var34 var26)
  (or var25 var44 var49)
  (or var38 var13 var34)
  (or var38 var30 var42)
  (or var47 var32 var1)
  (or var10 var2 var47)
  (or var25 var40 var23)
  (or var25 var22 var45)
  (or var44 var32 var15)
  (or var15 var13 var36)
  (or var39 var42 var41)
  (or var13 var41 var32)
  (or var12 var20 var23)
  (or var26 var28 var18)
  (or var15 var36 var47)
  (or var30 var30 var37)
  (or var19 var23 var26)
  (or var47 var23 var32)
  (or var23 var28 var3)
  (or var41 var34 var11)
  (or var1 var39 var29)
  (or var33 var32 var37)
  (or var45 var34 var7)
  (or var36 var23 var33)
  (or var33 var34 var3)
  (or var12 var9 var47)
  (or var26 var34 var34)
  (or var5 var12 var15)
  (or var46 var12 var13)
  (or var34 var33 var36)
  (or var42 var37 var1)
  (or var30 var47 var5)
  (or var28 var47 var10)
  (or var27 var7 var38)
  (or var16 var10 var50)
  (or var36 var42 var35)
  (or var35 var27 var10)
  (or var25 var28 var42)
  (or var11 var27 var41)
  (or var18 var28 var36)
  (or var11 var33 var1)
  (or var26 var29 var1)
  (or var45 var42 var39)
  (or var40 var19 var8)
  (or var18 var33 var47)
  (or var5 var37 var3)
  (or var38 var24 var3)
  (or var43 var9 var6)
  (or var14 var16 var31)
  (or var34 var50 var50)
  (or var38 var14 var48)
  (or var21 var11 var32)
  (or var1 var3 var10)
  (or var11 var36 var23)
  (or var43 var20 var42)
  (or var38 var30 var9)
  (or var27 var24 var19)
  (or var5 var13 var17)
  (or var19 var8 var16)
  (or var15 var42 var18)
  (or var44 var14 var39)
  (or var31 var1 var36)
  (or var1 var35 var44)
  (or var22 var32 var30)
  (or var12 var40 var15)
  (or var47 var15 var27)
  (or var17 var12 var28)
  (or var6 var7 var5)
  (or var16 var41 var26)
  (or var44 var50 var17)
  (or var11 var26 var18)
  (or var43 var14 var43)
  (or var30 var36 var18)
  (or var1 var10 var26)
  (or var2 var28 var14)
  (or var35 var45 var2)
  ))
(check-sat)
(get-model)
(exit)